1
714
715
716
717
718
295
720
721
722
723
151
725
726
727
749
729
730
731
732
733
734
735
629
630
631
632
633
634
635
636
637
638
639
640
409
642
643
644
645
646
647
648
627
650
651
390
525
654
655
656
832
833
148
835
836
837
838
767
840
841
842
834
844
845
846
115
848
849
237
430
852
825
826
827
828
829
830
810
839
335
769
770
771
772
773
774
794
795
339
797
831
811
812
813
814
700
816
817
145
819
820
821
822
479
745
798
799
244
245
246
247
248
249
250
251
352
253
254
255
709
257
258
272
273
274
275
276
277
278
67
672
438
282
602
284
285
216
287
288
892
290
291
292
293
294
719
596
239
547
548
549
550
551
552
553
554
555
556
136
364
559
560
561
562
921
523
565
566
567
568
569
570
571
572
573
574
575
95
577
578
579
580
581
582
583
584
585
586
587
588
589
590
591
592
593
594
595
296
597
598
599
600
601
283
603
604
605
606
607
608
609
610
611
612
613
614
615
616
617
658
659
741
661
543
497
498
499
500
501
502
503
504
505
506
507
508
509
510
511
512
513
514
515
516
517
518
676
520
521
522
564
1000
477
4
5
303
304
305
306
307
308
349
310
311
312
186
187
743
189
190
191
192
193
194
195
196
197
417
954
200
201
202
203
204
205
229
207
208
209
626
211
212
213
214
109
728
111
112
113
114
847
116
117
869
119
120
121
122
123
124
125
126
127
128
143
144
818
146
147
843
149
150
776
152
153
154
155
156
157
158
950
160
161
162
786
164
165
166
167
217
169
170
171
172
173
322
323
324
325
326
327
328
705
330
331
332
393
412
395
396
397
398
399
400
401
444
403
404
405
406
443
402
445
446
447
448
449
357
451
452
453
454
455
456
457
458
459
460
461
462
463
227
662
48
49
50
51
256
53
54
159
56
57
58
59
60
61
62
63
64
65
66
279
68
180
107
108
215
775
724
777
778
779
780
801
802
803
804
805
806
880
808
809
30
906
907
37
909
910
911
428
913
914
915
916
917
918
919
920
563
922
923
924
529
926
527
129
929
930
931
932
933
975
976
977
978
985
980
981
982
983
984
979
986
987
988
857
990
991
992
712
994
995
224
225
226
46
228
206
230
231
232
233
234
235
345
850
238
546
240
241
242
243
6
7
8
9
10
11
12
13
14
15
860
861
862
863
885
897
898
899
900
901
902
903
693
947
948
949
55
951
952
953
199
955
956
957
958
959
960
961
962
963
964
965
966
967
968
969
970
971
972
973
974
789
17
35
19
20
21
22
23
699
25
26
27
28
71
24
31
32
33
34
18
386
142
38
39
40
41
42
868
44
45
333
334
768
336
337
338
796
340
341
342
343
344
236
346
347
348
309
350
351
858
859
70
29
72
73
74
75
76
77
78
79
80
81
82
421
84
85
86
87
88
89
90
91
92
93
94
576
96
97
98
99
100
101
102
103
104
105
106
928
130
131
132
133
904
480
557
137
138
139
140
141
908
286
168
218
219
220
221
222
223
996
997
998
999
2
174
865
866
867
43
429
870
871
758
873
874
875
621
877
878
879
807
881
882
883
884
896
886
887
912
118
851
431
432
433
434
435
436
437
281
439
440
441
442
175
176
177
178
179
69
181
182
183
184
185
313
314
315
316
317
188
319
320
321
259
260
261
262
263
264
856
266
267
268
269
270
464
534
535
536
537
538
539
540
541
526
927
528
531
532
533
271
367
368
369
370
371
372
373
374
375
376
377
378
379
380
381
668
383
384
385
36
387
545
389
652
391
392
683
684
685
686
687
688
689
690
691
692
297
298
299
300
301
302
252
353
354
355
356
450
358
359
360
361
362
363
558
365
366
47
663
664
665
666
667
382
669
670
671
280
673
674
675
519
677
678
679
680
681
682
905
815
701
702
703
704
329
706
707
708
52
710
711
993
713
407
408
641
410
411
394
413
414
415
416
198
418
419
530
83
422
423
424
425
426
427
888
889
800
465
466
467
468
469
470
471
472
473
474
475
476
3
478
823
135
481
482
483
484
485
486
487
488
489
490
491
492
493
494
495
496
524
694
695
696
697
698
925
420
653
542
544
388
618
619
620
744
622
623
624
625
210
649
628
736
737
738
739
740
660
742
318
876
824
746
747
657
134
748
110
750
751
752
753
754
755
756
757
872
759
760
761
762
763
764
765
766
781
782
783
784
785
163
787
788
16
790
791
792
793
853
854
855
265
989
864
890
891
289
893
894
895
934
935
936
937
938
939
940
941
942
943
944
945
946
